fail
(set-logic ALL)
(declare-sort S 0)
(declare-const c1 (Array Float64 S))
(declare-const c  (_ BitVec 52))
(assert (not (= (select c1 (fp (_ bv0 1) (_ bv0 11) c)) (select c1 (fp (_ bv0 1) (_ bv0 11) (_ bv0 52))))))
(check-sat)

command
./bin/cvc5 test.smt2

locations
before revision:44de4ab
fixed revision:8e3dead
buggy locations:
file:src/theory/fp/theory_fp.cpp; method:Node TheoryFp::getValue(TNode node)
